% File represents an instance of a Composite Structure problem to be solved by a CP framework
% Created on 2025-03-26 10:41:27.163
T = 58;
n = 16;
m = 24;
edges = [(1, 2),
(5, 6),
(10, 9),
(13, 14),
(3, 2),
(7, 6),
(11, 10),
(15, 14),
(3, 4),
(7, 8),
(11, 12),
(16, 15),
(5, 1),
(5, 9),
(13, 9),
(6, 2),
(10, 6),
(10, 14),
(7, 3),
(11, 7),
(11, 15),
(8, 4),
(12, 8),
(16, 12)];
counts = [|16, 2, 16, 16,
|14, 2, 14, 14,
|14, 4, 14, 14,
|14, 2, 14, 14,
|16, 4, 16, 18,
|14, 4, 14, 16,
|14, 4, 14, 18,
|14, 2, 14, 18,
|16, 2, 16, 18,
|16, 4, 16, 18,
|16, 4, 16, 20,
|16, 2, 16, 18,
|16, 2, 16, 24,
|16, 2, 16, 18,
|16, 2, 16, 20,
|16, 4, 16, 20|];
